System = Relaxation (PBE)
#------------------------------------------------------------------
ENCUT = 520
PREC = Accurate
ISMEAR = 0
SIGMA = 0.1
EDIFF = 1E-6
EDIFFG = -0.02
NSW = 9900
IBRION = 2
ISIF = 2
ISPIN = 2
#------------------------------------------------------------------
MAGMOM = 12*3.0 48*0.6 48*0.0
#------------------------------------------------------------------
ISYM   = 0              # use no symmetry
#------------------------------------------------------------------
ALGO     = Fast
LREAL    = Auto            # rela-space projection
NELMIN   = 4            # minimum step in a ELM
WEIMIN   = 0            # treat empty bands accurately to overcome the convergence problem in ALGO-fast
LORBIT =11
EMIN = -15
EMAX = 15
NEDOS= 6000
NCORE     = 16        # normally = ~sqrt(number of cores requested)
#---------------------------------------------------------------------
